letting n =  10
letting blocks =  [[1, 1], [1, 3], [1, 5], [1, 6], [1, 9], [1, 10], [2, 3], [2, 4], [2, 9], [3, 3], [3, 5], [3, 7], [3, 8], [4, 1], [4, 4], [4, 5], [5, 1], [5, 2], [5, 3], [5, 4], [5, 6], [5, 7], [6, 4], [6, 5], [6, 9], [6, 10], [7, 2], [7, 5], [7, 6], [7, 8], [8, 1], [8, 7], [9, 4], [9, 9], [9, 10], [10, 7], [10, 8], [10, 9]]
